StudentsNr = 10;
InstructorsNr = 81;
DaysNr = 2;
SlotsPerDay = 60;
AvailabilitySlotsLenght = 20;
RoomNr = 2;
ProgrammNr = 1;
DegreeNr = 1;
RolesNr = 0;
CoursesNr = 7;
InstructorsProgramm = [{1}, {1}, {1}, {1}, {1}, {1}, {1}, {1}, {1}, {1}, {1}, {1}, {1}, {1}, {1}, {1}, {1}, {1}, {1}, {1}, {1}, {1}, {1}, {1}, {1}, {1}, {1}, {1}, {1}, {1}, {1}, {1}, {1}, {1}, {1}, {1}, {1}, {1}, {1}, {1}, {1}, {1}, {1}, {1}, {1}, {1}, {1}, {1}, {1}, {1}, {1}, {1}, {1}, {1}, {1}, {1}, {1}, {1}, {1}, {1}, {1}, {1}, {1}, {1}, {1}, {1}, {1}, {1}, {1}, {1}, {1}, {1}, {1}, {1}, {1}, {1}, {1}, {1}, {1}, {1}, {1}];
InstructorRolesPerProgramm = array2d(1..ProgrammNr,{},[]);
InstructorsAvailability = [|1, 1, 1, 1, 1, 1, |0, 0, 1, 1, 1, 1, |0, 0, 1, 0, 1, 1, |1, 1, 1, 1, 1, 1, |1, 1, 1, 0, 1, 1, |1, 1, 1, 1, 1, 0, |1, 1, 1, 1, 1, 1, |1, 0, 1, 1, 0, 1, |0, 0, 1, 1, 1, 0, |0, 0, 0, 1, 0, 0, |0, 1, 1, 1, 1, 1, |1, 0, 1, 1, 1, 1, |0, 1, 1, 0, 1, 1, |0, 1, 1, 1, 1, 1, |0, 1, 1, 1, 1, 1, |0, 1, 1, 1, 0, 1, |1, 1, 1, 1, 1, 1, |1, 1, 1, 1, 1, 1, |1, 1, 1, 1, 1, 1, |1, 1, 1, 0, 0, 1, |1, 1, 1, 1, 1, 1, |0, 0, 0, 1, 1, 1, |1, 1, 1, 1, 1, 1, |0, 1, 0, 1, 1, 1, |0, 1, 1, 1, 1, 1, |1, 1, 1, 1, 1, 1, |1, 0, 1, 1, 0, 1, |0, 0, 0, 0, 1, 1, |0, 1, 1, 1, 1, 1, |1, 0, 1, 0, 1, 1, |1, 1, 0, 1, 1, 1, |0, 0, 1, 0, 1, 1, |0, 0, 0, 0, 1, 1, |1, 1, 1, 1, 1, 0, |1, 1, 1, 1, 1, 0, |1, 1, 0, 0, 0, 1, |0, 1, 1, 1, 0, 0, |0, 1, 1, 1, 1, 1, |1, 1, 0, 1, 1, 1, |1, 1, 1, 1, 1, 1, |0, 0, 0, 1, 1, 1, |0, 1, 1, 1, 1, 1, |1, 1, 1, 0, 1, 1, |0, 1, 1, 1, 1, 1, |0, 1, 1, 1, 1, 1, |0, 1, 1, 1, 1, 1, |1, 0, 1, 1, 1, 1, |1, 1, 1, 1, 1, 1, |1, 0, 0, 1, 1, 1, |0, 0, 1, 1, 0, 1, |0, 1, 1, 1, 1, 1, |1, 0, 0, 0, 0, 1, |0, 1, 1, 1, 1, 1, |0, 1, 1, 1, 1, 1, |1, 1, 0, 1, 1, 0, |1, 1, 1, 1, 1, 1, |0, 0, 1, 1, 1, 1, |0, 1, 1, 1, 0, 1, |0, 0, 1, 1, 0, 1, |0, 1, 1, 1, 1, 1, |1, 1, 1, 0, 1, 1, |1, 0, 1, 0, 0, 1, |1, 1, 0, 1, 1, 0, |1, 0, 1, 1, 1, 1, |0, 1, 1, 1, 1, 1, |1, 0, 1, 0, 0, 1, |1, 1, 1, 0, 0, 1, |1, 1, 1, 1, 1, 1, |0, 1, 1, 1, 1, 1, |1, 1, 0, 0, 1, 1, |1, 1, 1, 1, 1, 1, |1, 1, 1, 1, 1, 1, |1, 1, 1, 1, 0, 1, |0, 0, 1, 1, 1, 1, |0, 1, 0, 1, 1, 1, |1, 1, 0, 0, 1, 1, |0, 1, 1, 1, 1, 1, |0, 1, 1, 1, 0, 1, |1, 1, 0, 1, 0, 1, |0, 0, 1, 0, 1, 0, |1, 1, 1, 1, 1, 1|];
StudentsProgramm = [1, 1, 1, 1, 1, 1, 1, 1, 1, 1];
StudentsDegree = [1, 1, 1, 1, 1, 1, 1, 1, 1, 1];
StudentsSupervisorId = [1, 44, 26, 78, 59, 74, 47, 23, 22, 12];
StudentsCourseIds = [{}, {}, {}, {}, {}, {}, {}, {}, {}, {}];
StudentsAvailability = [|0, 1, 0, 0, 0, 0, |1, 1, 1, 1, 1, 1, |0, 1, 1, 1, 1, 1, |0, 1, 1, 1, 1, 1, |1, 1, 1, 1, 1, 1, |1, 1, 1, 1, 1, 1, |0, 0, 1, 1, 1, 1, |1, 1, 0, 0, 1, 1, |1, 1, 1, 1, 1, 1, |1, 1, 1, 1, 1, 1|];
TheoryticalMinCard = [1, 1, 1, 1, 1, 1, 1, 1, 1, 1];
CoursesInstructorIds = [{2, 3, 4, 6, 7, 8, 9, 10, 11, 15, 20, 25, 27, 28, 30, 33, 36, 40, 46, 53, 57, 58, 59, 60, 61, 63, 64, 65, 66, 67, 72, 74, 77, 78, 79, 80, 81}, {1, 2, 3, 4, 5, 6, 8, 9, 11, 12, 13, 15, 16, 18, 20, 22, 23, 24, 26, 28, 30, 31, 32, 35, 40, 46, 47, 52, 53, 54, 56, 58, 59, 60, 61, 62, 64, 70, 71, 74, 77, 81}, {1, 3, 4, 6, 8, 10, 11, 13, 15, 32, 34, 38, 40, 43, 45, 46, 47, 50, 51, 53, 55, 57, 59, 60, 62, 63, 64, 67, 70, 72, 73, 78, 79, 80, 81}, {1, 4, 7, 13, 18, 31, 35, 38, 42, 47, 48, 50, 65, 69, 74, 79}, {1, 3, 4, 7, 9, 14, 18, 19, 21, 23, 24, 25, 30, 34, 35, 36, 38, 40, 41, 43, 44, 46, 48, 50, 52, 54, 57, 58, 59, 60, 61, 63, 65, 67, 69, 70, 71, 73, 75, 76, 77, 78, 80}, {2, 3, 5, 6, 9, 10, 11, 13, 14, 15, 17, 18, 19, 20, 22, 23, 24, 27, 28, 29, 31, 33, 34, 35, 37, 38, 40, 41, 42, 44, 45, 51, 52, 56, 57, 59, 61, 62, 63, 64, 65, 66, 67, 69, 76, 78, 81}, {12, 40, 46, 50, 76}];
RolesDemands = [];
RolesContinuity = [];
ExamLen = [1, 1, 1, 1, 1, 1, 1, 1, 1, 1];
LunchTsMinLen = 1;
LunchStarts = [20..41, 85..101];
SupervisorAvailable = 5;
OptimalLunchLenght = [2, 1];
OptimalStartTs = [2, 0];
OptimalFinishTs = [0, 60];
MinimizeRooms = 400;
RolesSoftContinuity = array2d(1..2,{},[]);
SameDegreeInRoom = 10;
Mergeability = 0;
